WARNING: for repeatability, setting FPU to use double precision
============================[ Problem Statistics ]=============================
|                                                                             |
|  Number of variables:            50                                         |
|  Number of clauses:             218                                         |
|  Parse time:                   0.00 s                                       |
|                                                                             |
============================[ Search Statistics ]==============================
| Conflicts |          ORIGINAL         |          LEARNT          | Progress |
|           |    Vars  Clauses Literals |    Limit  Clauses Lit/Cl |          |
===============================================================================
===============================================================================
restarts              : 1
conflicts             : 8              (46784 /sec)
decisions             : 20             (0.00 % random) (116959 /sec)
propagations          : 171            (1000000 /sec)
conflict literals     : 48             (4.00 % deleted)
Memory used           : 20.00 MB
CPU time              : 0.000171 s

SATISFIABLE
